letting n_nurses=25
letting n_days=7
letting n_shift_types=4
letting max_covers=8
letting t_covers=61
letting covers=[1,0,0,0,5,4,2,0,7,7,3,0,8,4,3,0,6,8,3,0,0,0,0,0,0,0,0,0]
letting prefes=[3,2,2,2,3,3,3,1,1,1,1,1,1,1,1,1,3,2,2,2,3,3,3,1,3,3,3,1,3,2,2,2,3,3,3,1,3,3,1,1,3,3,1,1,3,2,2,2,3,3,3,1,3,3,3,1,1,2,2,2,3,3,3,1,3,3,3,1,3,3,3,1,1,2,2,2,3,3,3,1,3,3,3,1,3,2,2,2,3,3,3,1,3,3,3,3,3,3,3,3,3,2,2,2,3,3,3,1,3,3,3,1,3,3,3,3,3,3,1,1,3,3,3,1,3,3,3,1,3,3,3,3,3,3,1,1,3,3,1,1,3,2,2,2,1,1,3,1,3,3,3,3,3,3,3,3,3,2,2,2,1,1,3,1,1,1,3,1,3,3,3,3,3,3,3,3,3,3,3,1,3,3,3,1,3,3,3,3,3,3,3,3,3,3,3,3,3,2,2,2,3,3,3,1,3,3,3,1,3,3,3,1,3,2,2,2,3,3,3,1,3,3,3,1,3,3,3,3,3,1,3,1,3,3,3,3,3,3,3,3,3,3,3,3,3,1,3,1,3,1,3,1,3,2,2,2,3,3,3,1,3,3,3,1,3,3,3,1,3,2,2,2,3,3,3,1,3,3,3,1,3,3,3,3,3,3,3,3,3,3,3,1,3,3,3,1,3,3,3,3,3,3,3,3,3,3,3,3,3,2,2,2,1,1,1,1,3,3,3,1,3,3,3,1,3,2,2,2,1,1,1,1,1,1,1,1,1,2,2,2,1,3,3,1,1,3,1,1,1,3,1,1,1,2,2,2,1,3,3,1,1,3,3,1,1,2,2,2,3,3,3,3,1,3,3,1,1,3,3,1,1,2,2,2,3,3,3,3,3,3,3,3,3,2,2,2,3,3,3,3,3,3,3,3,3,3,3,3,3,2,2,2,3,3,3,3,3,3,3,3,3,2,2,2,3,1,1,1,3,3,1,1,3,3,1,1,3,2,2,2,3,1,1,1,3,1,1,1,3,2,2,2,1,3,3,1,3,1,3,1,3,1,3,1,3,2,2,2,1,3,3,1,1,3,3,1,3,2,2,2,3,3,3,1,3,3,1,1,3,3,1,1,3,2,2,2,3,3,3,1,3,3,3,1,3,2,2,2,3,3,1,1,3,3,3,1,3,3,3,1,3,2,2,2,3,3,1,1,3,3,1,1,1,2,2,2,3,3,3,1,1,1,3,1,1,1,3,1,1,2,2,2,3,3,3,1,3,3,3,1,1,2,2,2,3,3,3,1,1,1,3,1,1,1,3,1,1,2,2,2,3,3,3,1,3,3,3,1,3,2,2,2,1,3,3,1,3,3,3,1,3,3,3,1,3,2,2,2,1,3,3,1,1,3,3,1,3,3,3,3,3,3,3,1,3,3,3,1,3,3,3,1,3,3,3,3,3,3,3,1,3,3,3,1,3,2,2,2,3,3,3,3,3,3,3,3,3,3,3,3,3,2,2,2,3,3,3,3,3,3,3,3,3,2,2,2,3,1,1,1,3,1,3,1,3,1,3,1,3,2,2,2,3,1,1,1,3,1,1,1]
letting ub =  311
